30
11
0 11 3 18 16 26 15 21 14 4 28 1 22 29
3 9 13 17 16 23 10 14 26 27 25 8 28 7 20 15 29 2 12 11 1 6 19
8 27
3 4 2 8 11 17 26 19 24 0 12 29 27 28 16 15 1 18 22
6 21 3 28 4 27 26 5 19 12 7 16 1 0 24 23
11 20 4 5 12 0 9 19 27 1 24 21 2 28
0 15 18 16 2 26 1 7 29 9 11 13 5 6 22 19 10 28 4 8
5 27 25 11 3 7 14 16 1 4 8 12 2 9 18 23 29 26
28 29 11 5 19 25 23 27 21 2 24 9 18 20 12 10 7 0
18 5 11 13 15 20 24
12 15 3 26 2 0 9 1 23 29 17 21 28 5 7 27 10 25 16 6 13 14 19 20 8 11
